100
1000
240
240
240
239
239
239
239
238
238
238
237
236
233
232
231
230
230
230
228
223
222
219
219
218
218
218
217
217
216
214
214
213
212
212
211
211
210
210
209
208
208
208
207
207
206
206
206
204
203
203
203
203
203
202
201
201
200
200
200
200
199
199
199
198
196
196
196
194
194
191
189
188
188
188
188
187
185
185
185
183
182
182
181
179
179
178
177
176
176
175
175
172
172
168
167
166
163
163
163
163
